g3 0 1 0	# problem d4n12R3R7d01d1
 12 9 1 0 3	# vars, constraints, objectives, ranges, eqns
 4 1	# nonlinear constraints, objectives
 0 0	# network constraints: nonlinear, linear
 12 12 12	# nonlinear vars in constraints, objectives, both
 0 0 0 1	# linear network variables; functions; arith, flags
 0 0 0 0 0	# discrete variables: binary, integer, nonlinear (b,c,o)
 108 12	# nonzeros in Jacobian, gradients
 0 0	# max name lengths: constraints, variables
 0 0 0 0 0	# common exprs: b,c,o,c1,o1
b
0 0.44 2.58
0 0.91 2.55
0 0.49 2.22
0 0.74 2.49
0 0.58 2.06
0 0.54 2.19
0 0.97 2.82
0 0.18 2.49
0 0.55 2.23
0 0.66 2.26
0 0.53 2.71
0 0.24 2.76
r
2 97.429
2 820.331
2 3020.51
2 178.777
4 90.746
4 30.883
4 101.273
2 72.922
2 114.467
C0
o54
9
o2
o2
n0.41
v1
v5
o2
o2
n3.79
v1
v6
o2
o2
n1.05
v2
v3
o2
o2
n1.66
v2
v9
o2
o2
n4.57
v2
v10
o2
o2
n6.27
v5
v6
o2
o2
n1.67
v6
v9
o16
o2
o2
n5.78
v6
v11
o2
o2
n3.16
v8
v8
C1
o54
47
o2
o2
n5.26
v1
v5
o2
o2
n3.64
v1
v6
o16
o2
o2
n9.03
v2
v3
o2
o2
n2.52
v2
v9
o2
o2
n4.55
v2
v10
o2
o2
n5.29
v5
v6
o2
o2
n4.42
v6
v9
o2
o2
n6.59
v6
v11
o2
o2
n2.73
v8
v8
o2
o2
o2
n4.94
v0
v1
v4
o2
o2
o2
n9.84
v0
v1
v10
o2
o2
o2
n7.66
v0
v5
v11
o2
o2
o2
n9.49
v0
v6
v6
o2
o2
o2
n7.87
v0
v9
v11
o2
o2
o2
n3.76
v1
v3
v11
o2
o2
o2
n1.15
v1
v4
v5
o16
o2
o2
o2
n6
v1
v4
v6
o2
o2
o2
n4.91
v1
v5
v5
o2
o2
o2
n7.23
v1
v9
v11
o2
o2
o2
n8.08
v2
v2
v6
o2
o2
o2
n6.16
v2
v2
v8
o2
o2
o2
n4.07
v2
v2
v10
o2
o2
o2
n8.26
v2
v3
v10
o2
o2
o2
n4.77
v2
v4
v4
o2
o2
o2
n4.14
v2
v5
v5
o2
o2
o2
n8.37
v3
v4
v4
o16
o2
o2
o2
n2.53
v3
v4
v10
o2
o2
o2
n8.84
v3
v5
v7
o2
o2
o2
n8.21
v3
v5
v10
o2
o2
o2
n9.93
v3
v6
v8
o16
o2
o2
o2
n0.24
v3
v10
v11
o2
o2
o2
n1.4
v4
v5
v8
o16
o2
o2
o2
n0.71
v4
v6
v8
o2
o2
o2
n0.36
v4
v8
v10
o2
o2
o2
n9.35
v5
v5
v8
o2
o2
o2
n5.56
v5
v5
v9
o2
o2
o2
n4.4
v5
v6
v8
o2
o2
o2
n7.33
v5
v8
v10
o2
o2
o2
n4.92
v5
v10
v10
o2
o2
o2
n1.15
v6
v6
v8
o2
o2
o2
n4.97
v6
v8
v8
o2
o2
o2
n7.45
v6
v9
v11
o2
o2
o2
n4.84
v7
v9
v11
o2
o2
o2
n5.68
v7
v10
v11
o2
o2
o2
n9.83
v9
v9
v10
o2
o2
o2
n5.32
v9
v11
v11
o2
o2
o2
n1.68
v10
v10
v11
C2
o54
181
o2
o2
n2.49
v1
v5
o16
o2
o2
n8.04
v1
v6
o2
o2
n2.27
v2
v3
o2
o2
n7.28
v2
v9
o2
o2
n9.56
v2
v10
o2
o2
n8.68
v5
v6
o2
o2
n3.66
v6
v9
o2
o2
n4.05
v6
v11
o2
o2
n4.39
v8
v8
o2
o2
o2
n4.01
v0
v1
v4
o2
o2
o2
n6.2
v0
v1
v10
o16
o2
o2
o2
n6.94
v0
v5
v11
o2
o2
o2
n0.68
v0
v6
v6
o2
o2
o2
n4.61
v0
v9
v11
o2
o2
o2
n0.53
v1
v3
v11
o2
o2
o2
n0.12
v1
v4
v5
o2
o2
o2
n2.63
v1
v4
v6
o2
o2
o2
n8.1
v1
v5
v5
o16
o2
o2
o2
n3.1
v1
v9
v11
o2
o2
o2
n2.8
v2
v2
v6
o2
o2
o2
n2.18
v2
v2
v8
o16
o2
o2
o2
n4.18
v2
v2
v10
o2
o2
o2
n1.59
v2
v3
v10
o2
o2
o2
n7.37
v2
v4
v4
o2
o2
o2
n2.47
v2
v5
v5
o2
o2
o2
n5.9
v3
v4
v4
o2
o2
o2
n6.42
v3
v4
v10
o2
o2
o2
n3.82
v3
v5
v7
o2
o2
o2
n7.59
v3
v5
v10
o2
o2
o2
n7.23
v3
v6
v8
o2
o2
o2
n8.67
v3
v10
v11
o2
o2
o2
n0.4
v4
v5
v8
o2
o2
o2
n8.51
v4
v6
v8
o2
o2
o2
n6.84
v4
v8
v10
o2
o2
o2
n4.18
v5
v5
v8
o16
o2
o2
o2
n0.57
v5
v5
v9
o2
o2
o2
n5.37
v5
v6
v8
o2
o2
o2
n8.1
v5
v8
v10
o2
o2
o2
n3.87
v5
v10
v10
o2
o2
o2
n6.11
v6
v6
v8
o2
o2
o2
n5.91
v6
v8
v8
o2
o2
o2
n5.45
v6
v9
v11
o2
o2
o2
n0.34
v7
v9
v11
o2
o2
o2
n6.57
v7
v10
v11
o2
o2
o2
n0.2
v9
v9
v10
o2
o2
o2
n6.84
v9
v11
v11
o16
o2
o2
o2
n0.76
v10
v10
v11
o2
o2
o2
o2
n4.92
v0
v0
v0
v4
o2
o2
o2
o2
n1.63
v0
v0
v0
v5
o2
o2
o2
o2
n2.62
v0
v0
v0
v6
o2
o2
o2
o2
n5.94
v0
v0
v2
v5
o2
o2
o2
o2
n9.48
v0
v0
v2
v10
o2
o2
o2
o2
n4.16
v0
v0
v3
v9
o2
o2
o2
o2
n0.48
v0
v0
v4
v4
o2
o2
o2
o2
n5.69
v0
v0
v4
v5
o2
o2
o2
o2
n2.05
v0
v0
v4
v11
o2
o2
o2
o2
n5.73
v0
v0
v6
v8
o2
o2
o2
o2
n6.82
v0
v0
v7
v7
o2
o2
o2
o2
n0.42
v0
v0
v7
v11
o2
o2
o2
o2
n2.37
v0
v1
v1
v9
o2
o2
o2
o2
n8.05
v0
v1
v4
v8
o2
o2
o2
o2
n4.26
v0
v1
v5
v8
o16
o2
o2
o2
o2
n9.01
v0
v1
v5
v10
o2
o2
o2
o2
n8.74
v0
v1
v6
v6
o2
o2
o2
o2
n2.54
v0
v1
v6
v9
o2
o2
o2
o2
n5.39
v0
v1
v7
v7
o2
o2
o2
o2
n2.86
v0
v2
v3
v6
o16
o2
o2
o2
o2
n4.97
v0
v2
v3
v7
o2
o2
o2
o2
n2.6
v0
v2
v3
v9
o2
o2
o2
o2
n2.89
v0
v2
v7
v9
o16
o2
o2
o2
o2
n6.32
v0
v2
v10
v11
o2
o2
o2
o2
n3.53
v0
v3
v8
v10
o2
o2
o2
o2
n2.01
v0
v3
v11
v11
o16
o2
o2
o2
o2
n5.75
v0
v4
v6
v6
o2
o2
o2
o2
n3.2
v0
v4
v7
v9
o2
o2
o2
o2
n4.94
v0
v4
v10
v11
o2
o2
o2
o2
n9.73
v0
v5
v6
v9
o2
o2
o2
o2
n1.83
v0
v5
v10
v11
o2
o2
o2
o2
n9.72
v0
v6
v6
v6
o16
o2
o2
o2
o2
n3.48
v0
v6
v8
v11
o2
o2
o2
o2
n0.85
v0
v7
v8
v10
o2
o2
o2
o2
n6.67
v0
v8
v9
v9
o2
o2
o2
o2
n3.52
v0
v8
v9
v11
o2
o2
o2
o2
n9.07
v0
v8
v10
v10
o2
o2
o2
o2
n3.81
v0
v9
v9
v9
o16
o2
o2
o2
o2
n8.49
v0
v9
v11
v11
o2
o2
o2
o2
n9.08
v1
v1
v1
v8
o16
o2
o2
o2
o2
n5.45
v1
v1
v4
v9
o16
o2
o2
o2
o2
n3.89
v1
v1
v5
v6
o2
o2
o2
o2
n9.52
v1
v1
v5
v7
o2
o2
o2
o2
n9.27
v1
v1
v6
v10
o2
o2
o2
o2
n4.58
v1
v1
v7
v7
o2
o2
o2
o2
n2.9
v1
v1
v8
v9
o2
o2
o2
o2
n3.5
v1
v1
v8
v10
o2
o2
o2
o2
n3.24
v1
v2
v3
v5
o2
o2
o2
o2
n7.33
v1
v2
v3
v8
o16
o2
o2
o2
o2
n5.23
v1
v2
v3
v11
o2
o2
o2
o2
n9.51
v1
v2
v4
v7
o2
o2
o2
o2
n0.53
v1
v2
v4
v10
o2
o2
o2
o2
n0.35
v1
v2
v5
v8
o2
o2
o2
o2
n10
v1
v2
v6
v10
o2
o2
o2
o2
n1.98
v1
v2
v7
v7
o2
o2
o2
o2
n1.35
v1
v2
v7
v10
o2
o2
o2
o2
n9.28
v1
v2
v9
v9
o16
o2
o2
o2
o2
n9.58
v1
v2
v11
v11
o16
o2
o2
o2
o2
n6.97
v1
v3
v3
v8
o16
o2
o2
o2
o2
n3.26
v1
v3
v4
v10
o2
o2
o2
o2
n8.16
v1
v3
v6
v9
o2
o2
o2
o2
n4.29
v1
v4
v4
v9
o2
o2
o2
o2
n4.75
v1
v4
v9
v10
o2
o2
o2
o2
n4
v1
v5
v8
v10
o2
o2
o2
o2
n5.03
v1
v6
v7
v9
o2
o2
o2
o2
n3.42
v1
v10
v11
v11
o2
o2
o2
o2
n8.56
v2
v2
v8
v10
o2
o2
o2
o2
n0.56
v2
v3
v3
v11
o2
o2
o2
o2
n3.95
v2
v3
v5
v9
o2
o2
o2
o2
n2.41
v2
v3
v6
v11
o2
o2
o2
o2
n9.63
v2
v3
v8
v10
o2
o2
o2
o2
n4.58
v2
v3
v10
v11
o2
o2
o2
o2
n3.06
v2
v4
v4
v9
o2
o2
o2
o2
n6.34
v2
v4
v9
v11
o2
o2
o2
o2
n8.53
v2
v4
v10
v10
o2
o2
o2
o2
n3.9
v2
v5
v5
v5
o2
o2
o2
o2
n9.08
v2
v6
v7
v9
o2
o2
o2
o2
n9.68
v2
v6
v8
v11
o2
o2
o2
o2
n2.64
v2
v7
v7
v11
o2
o2
o2
o2
n0.46
v2
v7
v11
v11
o2
o2
o2
o2
n7.9
v2
v8
v8
v9
o2
o2
o2
o2
n2.22
v3
v3
v4
v4
o2
o2
o2
o2
n10
v3
v3
v5
v5
o2
o2
o2
o2
n4.37
v3
v3
v7
v7
o2
o2
o2
o2
n1.56
v3
v4
v4
v7
o2
o2
o2
o2
n1.36
v3
v4
v5
v9
o2
o2
o2
o2
n9.29
v3
v4
v7
v10
o2
o2
o2
o2
n4.28
v3
v4
v10
v11
o2
o2
o2
o2
n1.37
v3
v5
v10
v10
o2
o2
o2
o2
n0.51
v3
v6
v6
v6
o16
o2
o2
o2
o2
n6.17
v3
v6
v7
v9
o2
o2
o2
o2
n3.96
v3
v6
v7
v11
o2
o2
o2
o2
n7.33
v3
v7
v8
v9
o2
o2
o2
o2
n3.91
v3
v7
v9
v9
o2
o2
o2
o2
n5.79
v3
v7
v10
v11
o2
o2
o2
o2
n5.18
v3
v7
v11
v11
o2
o2
o2
o2
n3.81
v3
v8
v9
v10
o16
o2
o2
o2
o2
n7.49
v3
v8
v10
v10
o2
o2
o2
o2
n1.59
v3
v8
v10
v11
o2
o2
o2
o2
n6.77
v3
v9
v10
v11
o2
o2
o2
o2
n1.47
v4
v4
v4
v6
o2
o2
o2
o2
n6.22
v4
v4
v5
v9
o2
o2
o2
o2
n0.34
v4
v4
v7
v7
o2
o2
o2
o2
n0.03
v4
v5
v7
v10
o2
o2
o2
o2
n5.37
v4
v5
v9
v11
o2
o2
o2
o2
n7.49
v4
v5
v11
v11
o2
o2
o2
o2
n3.42
v4
v6
v6
v10
o2
o2
o2
o2
n0.28
v4
v7
v7
v9
o2
o2
o2
o2
n9.46
v4
v7
v7
v11
o2
o2
o2
o2
n0.89
v4
v7
v11
v11
o2
o2
o2
o2
n4.36
v4
v8
v8
v8
o2
o2
o2
o2
n4.74
v4
v8
v10
v10
o2
o2
o2
o2
n7.2
v4
v9
v9
v9
o2
o2
o2
o2
n4.16
v5
v5
v11
v11
o2
o2
o2
o2
n2.65
v5
v6
v6
v6
o2
o2
o2
o2
n6.62
v5
v6
v6
v9
o2
o2
o2
o2
n8.48
v5
v7
v7
v10
o2
o2
o2
o2
n5.43
v5
v7
v8
v8
o16
o2
o2
o2
o2
n3.74
v5
v7
v8
v11
o2
o2
o2
o2
n5.46
v5
v7
v9
v9
o2
o2
o2
o2
n2.77
v5
v8
v9
v9
o2
o2
o2
o2
n1.72
v5
v10
v10
v10
o16
o2
o2
o2
o2
n5.38
v6
v6
v6
v10
o2
o2
o2
o2
n3.77
v6
v6
v8
v9
o2
o2
o2
o2
n8.58
v6
v6
v11
v11
o2
o2
o2
o2
n3.59
v6
v8
v8
v9
o2
o2
o2
o2
n0.11
v6
v8
v8
v11
o2
o2
o2
o2
n9.83
v7
v7
v7
v9
o2
o2
o2
o2
n9.07
v7
v7
v7
v10
o2
o2
o2
o2
n6.2
v7
v8
v8
v11
o2
o2
o2
o2
n4.06
v8
v9
v11
v11
o2
o2
o2
o2
n6.85
v9
v9
v9
v10
o2
o2
o2
o2
n3.99
v9
v9
v9
v11
o2
o2
o2
o2
n6.51
v9
v10
v10
v11
C3
o54
9
o2
o2
n7.89
v1
v5
o2
o2
n9.55
v1
v6
o2
o2
n5.03
v2
v3
o2
o2
n7.7
v2
v9
o2
o2
n9.27
v2
v10
o2
o2
n0.51
v5
v6
o2
o2
n8.89
v6
v9
o16
o2
o2
n9.55
v6
v11
o2
o2
n1.13
v8
v8
C4
n0
C5
n0
C6
n0
C7
n0
C8
n0
O0 0
o54
181
o2
o2
n0.25
v1
v5
o2
o2
n5.59
v1
v6
o2
o2
n6.81
v2
v3
o2
o2
n3.86
v2
v9
o2
o2
n5.56
v2
v10
o2
o2
n7.54
v5
v6
o2
o2
n9.29
v6
v9
o16
o2
o2
n9.3
v6
v11
o2
o2
n2.93
v8
v8
o2
o2
o2
n0.6
v0
v1
v4
o2
o2
o2
n0.33
v0
v1
v10
o2
o2
o2
n4.05
v0
v5
v11
o16
o2
o2
o2
n8.75
v0
v6
v6
o2
o2
o2
n7.14
v0
v9
v11
o16
o2
o2
o2
n4.19
v1
v3
v11
o2
o2
o2
n2.33
v1
v4
v5
o2
o2
o2
n5.21
v1
v4
v6
o2
o2
o2
n4.04
v1
v5
v5
o2
o2
o2
n8.1
v1
v9
v11
o2
o2
o2
n7.73
v2
v2
v6
o16
o2
o2
o2
n1.23
v2
v2
v8
o2
o2
o2
n1.45
v2
v2
v10
o2
o2
o2
n1.36
v2
v3
v10
o2
o2
o2
n5.12
v2
v4
v4
o2
o2
o2
n9.73
v2
v5
v5
o2
o2
o2
n7.86
v3
v4
v4
o2
o2
o2
n0.75
v3
v4
v10
o2
o2
o2
n8.79
v3
v5
v7
o2
o2
o2
n1.09
v3
v5
v10
o2
o2
o2
n1.37
v3
v6
v8
o2
o2
o2
n2.04
v3
v10
v11
o2
o2
o2
n6.9
v4
v5
v8
o2
o2
o2
n2.84
v4
v6
v8
o2
o2
o2
n7.23
v4
v8
v10
o2
o2
o2
n7.92
v5
v5
v8
o2
o2
o2
n2.13
v5
v5
v9
o2
o2
o2
n5.72
v5
v6
v8
o2
o2
o2
n1.64
v5
v8
v10
o2
o2
o2
n2.07
v5
v10
v10
o2
o2
o2
n8.59
v6
v6
v8
o2
o2
o2
n5.81
v6
v8
v8
o2
o2
o2
n1.78
v6
v9
v11
o2
o2
o2
n9.51
v7
v9
v11
o2
o2
o2
n4.97
v7
v10
v11
o2
o2
o2
n3.09
v9
v9
v10
o2
o2
o2
n2.1
v9
v11
v11
o2
o2
o2
n3.21
v10
v10
v11
o2
o2
o2
o2
n4
v0
v0
v0
v4
o2
o2
o2
o2
n6.12
v0
v0
v0
v5
o2
o2
o2
o2
n6.88
v0
v0
v0
v6
o2
o2
o2
o2
n6.93
v0
v0
v2
v5
o2
o2
o2
o2
n8.05
v0
v0
v2
v10
o2
o2
o2
o2
n3
v0
v0
v3
v9
o2
o2
o2
o2
n8.97
v0
v0
v4
v4
o2
o2
o2
o2
n4.33
v0
v0
v4
v5
o2
o2
o2
o2
n1.11
v0
v0
v4
v11
o2
o2
o2
o2
n8.67
v0
v0
v6
v8
o2
o2
o2
o2
n4.87
v0
v0
v7
v7
o2
o2
o2
o2
n4.32
v0
v0
v7
v11
o2
o2
o2
o2
n6.89
v0
v1
v1
v9
o2
o2
o2
o2
n8.3
v0
v1
v4
v8
o2
o2
o2
o2
n6.02
v0
v1
v5
v8
o2
o2
o2
o2
n2.68
v0
v1
v5
v10
o2
o2
o2
o2
n3.3
v0
v1
v6
v6
o2
o2
o2
o2
n7.07
v0
v1
v6
v9
o2
o2
o2
o2
n6.31
v0
v1
v7
v7
o2
o2
o2
o2
n9.86
v0
v2
v3
v6
o16
o2
o2
o2
o2
n3.05
v0
v2
v3
v7
o2
o2
o2
o2
n6.15
v0
v2
v3
v9
o2
o2
o2
o2
n5.89
v0
v2
v7
v9
o2
o2
o2
o2
n5.14
v0
v2
v10
v11
o2
o2
o2
o2
n0.62
v0
v3
v8
v10
o2
o2
o2
o2
n4.87
v0
v3
v11
v11
o16
o2
o2
o2
o2
n1.22
v0
v4
v6
v6
o16
o2
o2
o2
o2
n6.95
v0
v4
v7
v9
o2
o2
o2
o2
n5.38
v0
v4
v10
v11
o2
o2
o2
o2
n9.28
v0
v5
v6
v9
o2
o2
o2
o2
n1.33
v0
v5
v10
v11
o2
o2
o2
o2
n9.47
v0
v6
v6
v6
o2
o2
o2
o2
n1.04
v0
v6
v8
v11
o2
o2
o2
o2
n6.8
v0
v7
v8
v10
o2
o2
o2
o2
n0.37
v0
v8
v9
v9
o2
o2
o2
o2
n5.51
v0
v8
v9
v11
o2
o2
o2
o2
n1.26
v0
v8
v10
v10
o2
o2
o2
o2
n7.25
v0
v9
v9
v9
o2
o2
o2
o2
n6.41
v0
v9
v11
v11
o2
o2
o2
o2
n5.56
v1
v1
v1
v8
o2
o2
o2
o2
n1.65
v1
v1
v4
v9
o2
o2
o2
o2
n0.04
v1
v1
v5
v6
o2
o2
o2
o2
n6.48
v1
v1
v5
v7
o2
o2
o2
o2
n3.2
v1
v1
v6
v10
o2
o2
o2
o2
n7.86
v1
v1
v7
v7
o2
o2
o2
o2
n7.68
v1
v1
v8
v9
o2
o2
o2
o2
n7.82
v1
v1
v8
v10
o2
o2
o2
o2
n6.67
v1
v2
v3
v5
o2
o2
o2
o2
n10
v1
v2
v3
v8
o2
o2
o2
o2
n5.46
v1
v2
v3
v11
o2
o2
o2
o2
n5.5
v1
v2
v4
v7
o2
o2
o2
o2
n6.72
v1
v2
v4
v10
o2
o2
o2
o2
n3.37
v1
v2
v5
v8
o2
o2
o2
o2
n7.5
v1
v2
v6
v10
o2
o2
o2
o2
n6.1
v1
v2
v7
v7
o2
o2
o2
o2
n0.71
v1
v2
v7
v10
o2
o2
o2
o2
n5.27
v1
v2
v9
v9
o2
o2
o2
o2
n8.88
v1
v2
v11
v11
o16
o2
o2
o2
o2
n7.85
v1
v3
v3
v8
o2
o2
o2
o2
n2.98
v1
v3
v4
v10
o2
o2
o2
o2
n8.28
v1
v3
v6
v9
o2
o2
o2
o2
n4.2
v1
v4
v4
v9
o2
o2
o2
o2
n6.86
v1
v4
v9
v10
o16
o2
o2
o2
o2
n1.44
v1
v5
v8
v10
o2
o2
o2
o2
n9.56
v1
v6
v7
v9
o2
o2
o2
o2
n2.28
v1
v10
v11
v11
o2
o2
o2
o2
n9.68
v2
v2
v8
v10
o2
o2
o2
o2
n0.42
v2
v3
v3
v11
o2
o2
o2
o2
n6.61
v2
v3
v5
v9
o2
o2
o2
o2
n7.12
v2
v3
v6
v11
o2
o2
o2
o2
n2.08
v2
v3
v8
v10
o2
o2
o2
o2
n9.77
v2
v3
v10
v11
o2
o2
o2
o2
n9.12
v2
v4
v4
v9
o2
o2
o2
o2
n5.12
v2
v4
v9
v11
o2
o2
o2
o2
n4.11
v2
v4
v10
v10
o2
o2
o2
o2
n0.22
v2
v5
v5
v5
o2
o2
o2
o2
n7.17
v2
v6
v7
v9
o2
o2
o2
o2
n8.62
v2
v6
v8
v11
o2
o2
o2
o2
n1.34
v2
v7
v7
v11
o2
o2
o2
o2
n4.98
v2
v7
v11
v11
o2
o2
o2
o2
n5.63
v2
v8
v8
v9
o2
o2
o2
o2
n5.54
v3
v3
v4
v4
o2
o2
o2
o2
n2.47
v3
v3
v5
v5
o2
o2
o2
o2
n7.57
v3
v3
v7
v7
o2
o2
o2
o2
n4.81
v3
v4
v4
v7
o2
o2
o2
o2
n5.41
v3
v4
v5
v9
o2
o2
o2
o2
n3.06
v3
v4
v7
v10
o2
o2
o2
o2
n5.98
v3
v4
v10
v11
o2
o2
o2
o2
n7.4
v3
v5
v10
v10
o2
o2
o2
o2
n1.6
v3
v6
v6
v6
o2
o2
o2
o2
n5.59
v3
v6
v7
v9
o2
o2
o2
o2
n2.93
v3
v6
v7
v11
o2
o2
o2
o2
n1.64
v3
v7
v8
v9
o16
o2
o2
o2
o2
n9.76
v3
v7
v9
v9
o2
o2
o2
o2
n5.75
v3
v7
v10
v11
o16
o2
o2
o2
o2
n2.56
v3
v7
v11
v11
o2
o2
o2
o2
n0.69
v3
v8
v9
v10
o2
o2
o2
o2
n2.58
v3
v8
v10
v10
o2
o2
o2
o2
n4.99
v3
v8
v10
v11
o2
o2
o2
o2
n3.24
v3
v9
v10
v11
o2
o2
o2
o2
n8.33
v4
v4
v4
v6
o2
o2
o2
o2
n0.75
v4
v4
v5
v9
o2
o2
o2
o2
n9.29
v4
v4
v7
v7
o2
o2
o2
o2
n6.65
v4
v5
v7
v10
o2
o2
o2
o2
n0.88
v4
v5
v9
v11
o2
o2
o2
o2
n0.18
v4
v5
v11
v11
o2
o2
o2
o2
n4.19
v4
v6
v6
v10
o2
o2
o2
o2
n3.19
v4
v7
v7
v9
o2
o2
o2
o2
n5.33
v4
v7
v7
v11
o2
o2
o2
o2
n5.52
v4
v7
v11
v11
o2
o2
o2
o2
n6.12
v4
v8
v8
v8
o2
o2
o2
o2
n3.54
v4
v8
v10
v10
o2
o2
o2
o2
n3.79
v4
v9
v9
v9
o16
o2
o2
o2
o2
n9.81
v5
v5
v11
v11
o2
o2
o2
o2
n9.91
v5
v6
v6
v6
o2
o2
o2
o2
n6.51
v5
v6
v6
v9
o2
o2
o2
o2
n4.12
v5
v7
v7
v10
o16
o2
o2
o2
o2
n0.54
v5
v7
v8
v8
o2
o2
o2
o2
n2.58
v5
v7
v8
v11
o2
o2
o2
o2
n3.16
v5
v7
v9
v9
o2
o2
o2
o2
n6.88
v5
v8
v9
v9
o2
o2
o2
o2
n1.81
v5
v10
v10
v10
o2
o2
o2
o2
n3.37
v6
v6
v6
v10
o2
o2
o2
o2
n7.14
v6
v6
v8
v9
o2
o2
o2
o2
n8.46
v6
v6
v11
v11
o2
o2
o2
o2
n2.85
v6
v8
v8
v9
o2
o2
o2
o2
n0.06
v6
v8
v8
v11
o2
o2
o2
o2
n1.31
v7
v7
v7
v9
o2
o2
o2
o2
n0.53
v7
v7
v7
v10
o2
o2
o2
o2
n2.71
v7
v8
v8
v11
o2
o2
o2
o2
n1.48
v8
v9
v11
v11
o2
o2
o2
o2
n0.55
v9
v9
v9
v10
o2
o2
o2
o2
n5.66
v9
v9
v9
v11
o2
o2
o2
o2
n1.28
v9
v10
v10
v11
k11
9
18
27
36
45
54
63
72
81
90
99
J0 12
0 7.92
1 8.39
2 8.18
3 5.09
4 3.37
5 -7.42
6 -6.6
7 4.3
8 6.99
9 7.72
10 1.41
11 0.87
J1 12
0 3.24
1 8.83
2 9.03
3 2.38
4 7.73
5 5.24
6 4.51
7 6.91
8 1.54
9 4.95
10 9.59
11 -2.1
J2 12
0 1.6
1 3.16
2 8.94
3 0.93
4 9.72
5 7.19
6 1.28
7 5.32
8 9
9 -9.75
10 8.15
11 5.58
J3 12
0 8.27
1 4.46
2 5.96
3 6
4 9.28
5 0.21
6 1.48
7 5.08
8 1.67
9 6.13
10 3.02
11 3.36
J4 12
0 9.93
1 9.28
2 0.97
3 5.81
4 0.99
5 4.18
6 2.6
7 2.3
8 3.33
9 5.09
10 5.62
11 8.55
J5 12
0 2.41
1 2.93
2 3.26
3 -9.22
4 3.72
5 9.29
6 9.76
7 0.52
8 6.04
9 2.51
10 -3.19
11 -7.35
J6 12
0 4.95
1 9.15
2 1.24
3 9.76
4 8.41
5 8.04
6 4.74
7 1.11
8 6.08
9 1.63
10 2.21
11 9.05
J7 12
0 -5.56
1 3.88
2 4.58
3 9.01
4 4.31
5 2.83
6 9.68
7 9.79
8 1.06
9 7.23
10 0.11
11 0.45
J8 12
0 2.03
1 8.26
2 7.86
3 6.72
4 8.72
5 9.37
6 4.35
7 4.05
8 6.33
9 5.17
10 6.97
11 6.68
G0 12
0 3.79
1 0.57
2 6.96
3 6.32
4 -6.97
5 9.03
6 4.64
7 3.06
8 1.64
9 -4.33
10 8.78
11 7.19
